8612
4679
658
1169
1082
2132
6209
1250
6048
7602
3852
4739
4128
3916
5242
1262
6131
6136
4708
2769
6879
9230
7236
7501
8158
2975
5458
3405
2029
4522
4310
8539
10083
3102
5439
4705
9482
7610
5198
7879
6035
8171
10105
1043
9412
2667
5143
4310
3221
2113
1719
